
Gurobi 10.0.2 (linux64, Python) logging started Fri Dec 29 23:28:50 2023

Set parameter Username
Set parameter LogFile to value "gurobi.log"
Academic license - for non-commercial use only - expires 2024-07-28
